# THIS IS A SAMPLE of the LAMMPS INPUT SCRIPT TO GENERATE STATE at desired T, P (eqmT, eqmP).

# Setup parameters
variable            fluid index BlendAA
variable       		T index 100
log             	logEQM_${fluid}.out

# Potential information
units           	real
dimension       	3
boundary        	p p p
atom_style      	full

pair_style      	lj/cut/coul/cut 12.0 12.0 
bond_style      	harmonic
angle_style     	harmonic
dihedral_style 		opls
improper_style     	cvff
pair_modify 		mix geometric tail yes
special_bonds   	lj/coul 0.0 0.0 0.0

# Read lammps data file consist of molecular topology and forcefield info
read_data       	${fluid}.txt
neighbor        	2.0 bin
neigh_modify 		delay 0 every 1 check yes page 500000 one 50000

# Define variables
variable        	eqmT equal $T+273.15
variable        	eqmP equal 1.0				# Equilibrium pressure [atm]
variable        	nfreq   equal 1000	 		# Calculate averages every this many timesteps
variable        	nrepeat equal 100  			# Number of times to use input values for calculating averages
variable        	nevery  equal 10    		# Use input values every this many timesteps
variable 			rho equal density

# Minimize system at target temperature using the default conjugate gradient method
velocity        	all create ${eqmT} 482648
fix             	min all nve
thermo          	10
thermo_style 		custom step temp press density pxx pyy pzz pxy pxz pyz pe ke etotal evdwl ecoul epair ebond eangle edihed eimp emol etail enthalpy vol
dump            	1 all custom 10 min_w_${fluid}.lammpstrj id mol type x y z
dump            	2 all custom 10 min_u_${fluid}.lammpstrj id mol type xu yu zu
dump_modify     	1 sort id
dump_modify     	2 sort id
minimize        	1.0e-16 1.06e-6 100000 500000
undump          	1
undump          	2
write_restart   	Min_${fluid}.restart

unfix           	min
reset_timestep  	0
neigh_modify 		delay 0 every 1 check yes page 500000 one 50000

# NVT at high temperature
fix             	nvt1000K all nvt temp 1000.0 1000.0 100.0
thermo				${nfreq}
thermo_style 		custom step temp press density pxx pyy pzz pxy pxz pyz pe ke etotal evdwl ecoul epair ebond eangle edihed eimp emol etail enthalpy vol
fix 				thermo_print all print ${nfreq} "$(step) $(temp) $(press) $(density) $(pxx) $(pyy) $(pzz) $(pxy) $(pxz) $(pyz) $(pe) $(ke) $(etotal) $(evdwl) $(ecoul) $(epair) $(ebond) $(eangle) $(edihed) $(eimp) $(emol) $(etail) $(enthalpy) $(vol)" &
					append thermoNVT1000K_${fluid}.out screen no title "# step temp press density pxx pyy pzz pxy pxz pyz pe ke etotal evdwl ecoul epair ebond eangle edihed eimp emol etail enthalpy vol"
dump            	1 all custom ${nfreq} NVT1000K_u_${fluid}.lammpstrj id mol type xu yu zu
dump_modify     	1 sort id
run            		250000
undump          	1
unfix				nvt1000K
unfix               thermo_print
write_restart   	NVT1000K_${fluid}.restart

# NPT: Isothermal-isobaric ensemble to set the desired pressure; compute average density at that pressure
fix 				NPT all npt temp ${eqmT} ${eqmT} 100.0 iso ${eqmP} ${eqmP} 25.0
fix             	dave all ave/time 10 100 1000 v_rho ave running file eqmDensity_${fluid}_T${T}CP1atm.out
thermo				${nfreq}
thermo_style 		custom step temp press density pxx pyy pzz pxy pxz pyz pe ke etotal evdwl ecoul epair ebond eangle edihed eimp emol etail enthalpy vol
fix 				thermo_print all print ${nfreq} "$(step) $(temp) $(press) $(density) $(pxx) $(pyy) $(pzz) $(pxy) $(pxz) $(pyz) $(pe) $(ke) $(etotal) $(evdwl) $(ecoul) $(epair) $(ebond) $(eangle) $(edihed) $(eimp) $(emol) $(etail) $(enthalpy) $(vol)" &
					append thermoNPT_${fluid}_T${T}CP1atm.out screen no title "# step temp press density pxx pyy pzz pxy pxz pyz pe ke etotal evdwl ecoul epair ebond eangle edihed eimp emol etail enthalpy vol"
dump            	1 all custom ${nfreq} NPT_u_${fluid}_T${T}CP1atm.lammpstrj id mol type xu yu zu
dump            	2 all custom ${nfreq} NPT_w_${fluid}_T${T}CP1atm.lammpstrj id mol type x y z
dump_modify     	1 sort id
dump_modify     	2 sort id
run					1000000
undump          	1
undump          	2
unfix				NPT
unfix               thermo_print
write_restart  		NPT_${fluid}_T${T}CP1atm.restart

# NVT: Canonical ensemble to deform the box to match increase in P in previous step
variable        	averho equal f_dave
variable        	adjustrho equal (${rho}/${averho})^(1.0/3.0) # Adjustment factor needed to bring rho to averge rho
unfix				dave
fix             	NVT all nvt temp ${eqmT} ${eqmT} 100.0	
fix             	adjust all deform 1 x scale ${adjustrho} y scale ${adjustrho} z scale ${adjustrho}
thermo         		${nfreq}
thermo_style 		custom step temp press density pxx pyy pzz pxy pxz pyz pe ke etotal evdwl ecoul epair ebond eangle edihed eimp emol etail enthalpy vol
fix 				thermo_print all print ${nfreq} "$(step) $(temp) $(press) $(density) $(pxx) $(pyy) $(pzz) $(pxy) $(pxz) $(pyz) $(pe) $(ke) $(etotal) $(evdwl) $(ecoul) $(epair) $(ebond) $(eangle) $(edihed) $(eimp) $(emol) $(etail) $(enthalpy) $(vol)" &
					append thermoNVT_${fluid}_T${T}CP1atm.out screen no title "# step temp press density pxx pyy pzz pxy pxz pyz pe ke etotal evdwl ecoul epair ebond eangle edihed eimp emol etail enthalpy vol"
dump            	1 all custom ${nfreq} NVT_u_${fluid}_T${T}CP1atm.lammpstrj id mol type xu yu zu
dump_modify     	1 sort id
run					500000
undump          	1
unfix				NVT
unfix           	adjust
unfix               thermo_print
write_restart  		NVT_${fluid}_T${T}CP1atm.restart

# NVE: Microcanonical ensemble to explore the configuration space at constant T and V; relax
fix	       			NVE all nve
fix 				thermostat all langevin ${eqmT} ${eqmT} 100.0 39847 
thermo          	${nfreq}
thermo_style 		custom step temp press density pxx pyy pzz pxy pxz pyz pe ke etotal evdwl ecoul epair ebond eangle edihed eimp emol etail enthalpy vol
fix 				thermo_print all print ${nfreq} "$(step) $(temp) $(press) $(density) $(pxx) $(pyy) $(pzz) $(pxy) $(pxz) $(pyz) $(pe) $(ke) $(etotal) $(evdwl) $(ecoul) $(epair) $(ebond) $(eangle) $(edihed) $(eimp) $(emol) $(etail) $(enthalpy) $(vol)" &
					append thermoNVE_${fluid}_T${T}CP1atm.out screen no title "# step temp press density pxx pyy pzz pxy pxz pyz pe ke etotal evdwl ecoul epair ebond eangle edihed eimp emol etail enthalpy vol"
run             	250000
unfix           	NVE
unfix 				thermostat
unfix               thermo_print

# Output the state genearted that needed to shear the molecules
write_restart  		state_${fluid}_T${T}CP1atm.restart

################################# CALL TO START NEXT LOOP #######################################
clear
next            	fluid
jump 				in.eqm